4
4
40
1 1.3 1.55 1.75 2.1
12 9 12 37 22 9 12 29 17 12 6 5 49 13 36 30 29 17 19 13 43 28 11 27 13 20 44 13 48 16 32 11 22 18 44 17 21 20 32 18 26 41 30 5 15 45 31 12 13 44 36 36 13 41 12 35 23 6 26 11 21 30 38 14 14 22 12 8 37 14 13 7 35 34 31 5 27 31 10 21 42 16 18 44 13 10 13 9 10 42 28 36 5 8 44 17 46 6 26 6 26 12 16 44 5 39 47 27 30 44 49 8 47 37 13 21 8 48 32 31 30 26 13 25 30 9 14 45 11 7 7 22 47 7 46 6 39 7 41 27 39 27 49 16 37 31 7 36 12 26 40 39 6 12 17 11 45 32 43 49 